40
0 1 0.48 0.26
0 2 0.69 0.14
0 3 0.64 0.22
0 4 0.62 0.3
0 5 0.8 0.1
0 6 0.6 0.18
0 7 0.69 0.17
0 8 0.67 0.19
0 9 0.6 0.2
0 10 0.54 0.12
0 11 0.42 0.18
0 12 0.76 0.19
0 13 0.78 0.21
0 14 0.37 0.15
0 15 0.62 0.06
0 16 0.66 0.17
0 17 0.5 0.25
0 18 0.7 0.22
0 19 0.48 0.23
0 20 0.54 0.2
0 21 0.44 0.19
0 22 0.7 0.12
0 23 0.72 0.14
0 24 0.62 0.22
0 25 0.46 0.2
0 26 0.65 0.15
0 27 0.86 0.11
0 28 0.54 0.2
0 29 0.82 0.09
0 30 0.5 0.21
0 31 0.82 0.24
0 32 0.49 0.27
0 33 0.85 0.29
0 34 0.56 0.16
0 35 0.42 0.01
0 36 0.66 0.23
0 37 0.66 0.33
0 38 0.91 0.19
0 39 0.68 0.22
1 2 0.71 0.28
1 3 0.55 0.25
1 4 0.58 0.17
1 5 0.63 0.16
1 6 0.3 0.25
1 7 0.52 0.22
1 8 0.68 0.21
1 9 0.5 0.22
1 10 0.53 0.26
1 11 0.58 0.35
1 12 0.78 0.21
1 13 0.62 0.26
1 14 0.38 0.18
1 15 0.39 0.2
1 16 0.62 0.23
1 17 0.2 0.05
1 18 0.49 0.22
1 19 0.65 0.17
1 20 0.45 0.26
1 21 0.48 0.2
1 22 0.79 0.14
1 23 0.62 0.16
1 24 0.68 0.12
1 25 0.52 0.27
1 26 0.58 0.27
1 27 0.5 0.17
1 28 0.6 0.1
1 29 0.38 0.21
1 30 0.52 0.15
1 31 0.4 0.28
1 32 0.56 0.24
1 33 0.64 0.27
1 34 0.57 0.17
1 35 0.48 0.25
1 36 0.67 0.23
1 37 0.56 0.22
1 38 0.52 0.2
1 39 0.2 0.19
2 3 0.66 0.29
2 4 0.64 0.32
2 5 0.74 0.21
2 6 0.59 0.28
2 7 0.59 0.28
2 8 0.72 0.28
2 9 0.7 0.23
2 10 0.65 0.02
2 11 0.71 0.24
2 12 0.46 0.18
2 13 0.68 0.31
2 14 0.61 0.16
2 15 0.61 0.2
2 16 0.71 0.26
2 17 0.73 0.28
2 18 0.39 0.19
2 19 0.74 0.22
2 20 0.77 0.26
2 21 0.54 0.28
2 22 0.42 0.21
2 23 0.82 0.17
2 24 0.46 0.25
2 25 0.41 0.23
2 26 0.7 0.26
2 27 0.57 0.2
2 28 0.7 0.23
2 29 0.74 0.2
2 30 0.5 0.3
2 31 0.54 0.1
2 32 0.52 0.28
2 33 0.69 0.3
2 34 0.42 0.17
2 35 0.41 0.15
2 36 0.44 0.25
2 37 0.54 0.28
2 38 0.4 0.2
2 39 0.6 0.26
3 4 0.68 0.08
3 5 0.28 0.21
3 6 0.65 0.3
3 7 0.52 0.21
3 8 0.54 0.24
3 9 0.43 0.18
3 10 0.38 0.27
3 11 0.58 0.31
3 12 0.62 0.3
3 13 0.64 0.18
3 14 0.44 0.16
3 15 0.32 0.25
3 16 0.46 0.14
3 17 0.54 0.2
3 18 0.57 0.3
3 19 0.7 0.32
3 20 0.81 0.31
3 21 0.36 0.23
3 22 0.76 0.23
3 23 0.31 0.12
3 24 0.63 0.2
3 25 0.51 0.3
3 26 0.5 0.12
3 27 0.71 0.2
3 28 0.59 0.18
3 29 0.68 0.13
3 30 0.51 0.25
3 31 0.7 0.2
3 32 0.54 0.2
3 33 0.62 0.18
3 34 0.52 0.17
3 35 0.5 0.21
3 36 0.66 0.15
3 37 0.5 0.32
3 38 0.62 0.23
3 39 0.35 0.23
4 5 0.62 0.21
4 6 0.38 0.3
4 7 0.86 0.28
4 8 0.76 0.28
4 9 0.66 0.2
4 10 0.77 0.3
4 11 0.66 0.23
4 12 0.6 0.28
4 13 0.56 0.1
4 14 0.71 0.24
4 15 0.43 0.25
4 16 0.54 0.14
4 17 0.56 0.12
4 18 0.75 0.22
4 19 0.7 0.24
4 20 0.44 0.25
4 21 0.56 0.26
4 22 0.84 0.22
4 23 0.58 0.2
4 24 0.75 0.19
4 25 0.79 0.3
4 26 0.51 0.16
4 27 0.54 0.2
4 28 0.65 0.17
4 29 0.35 0.21
4 30 0.78 0.22
4 31 0.84 0.28
4 32 0.73 0.24
4 33 0.52 0.1
4 34 0.52 0.25
4 35 0.46 0.29
4 36 0.34 0.07
4 37 0.6 0.34
4 38 0.75 0.2
4 39 0.65 0.18
5 6 0.52 0.09
5 7 0.4 0.17
5 8 0.26 0.09
5 9 0.46 0.15
5 10 0.66 0.19
5 11 0.38 0.26
5 12 0.52 0.19
5 13 0.62 0.14
5 14 0.58 0.05
5 15 0.42 0.04
5 16 0.64 0.07
5 17 0.43 0.16
5 18 0.52 0.2
5 19 0.57 0.23
5 20 0.6 0.1
5 21 0.64 0.19
5 22 0.48 0.02
5 23 0.4 0.09
5 24 0.78 0.17
5 25 0.74 0.11
5 26 0.48 0.12
5 27 0.49 0.01
5 28 0.67 0.15
5 29 0.4 0.09
5 30 0.34 0.18
5 31 0.42 0.23
5 32 0.7 0.17
5 33 0.89 0.19
5 34 0.66 0.06
5 35 0.57 0.09
5 36 0.78 0.28
5 37 0.49 0.23
5 38 0.44 0.13
5 39 0.44 0.22
6 7 0.64 0.26
6 8 0.38 0.18
6 9 0.28 0.24
6 10 0.48 0.28
6 11 0.28 0.25
6 12 0.49 0.27
6 13 0.4 0.23
6 14 0.67 0.14
6 15 0.38 0.13
6 16 0.71 0.16
6 17 0.4 0.25
6 18 0.46 0.29
6 19 0.47 0.31
6 20 0.64 0.19
6 21 0.65 0.26
6 22 0.72 0.11
6 23 0.34 0.18
6 24 0.66 0.26
6 25 0.68 0.2
6 26 0.34 0.21
6 27 0.58 0.1
6 28 0.51 0.24
6 29 0.45 0.18
6 30 0.7 0.27
6 31 0.54 0.24
6 32 0.56 0.26
6 33 0.64 0.28
6 34 0.62 0.15
6 35 0.18 0.17
6 36 0.72 0.37
6 37 0.52 0.32
6 38 0.72 0.22
6 39 0.5 0.31
7 8 0.66 0.26
7 9 0.66 0.2
7 10 0.74 0.28
7 11 0.59 0.33
7 12 0.68 0.25
7 13 0.4 0.18
7 14 0.56 0.19
7 15 0.66 0.21
7 16 0.57 0.22
7 17 0.67 0.2
7 18 0.59 0.2
7 19 0.5 0.29
7 20 0.52 0.18
7 21 0.46 0.02
7 22 0.62 0.19
7 23 0.74 0.23
7 24 0.64 0.27
7 25 0.39 0.16
7 26 0.54 0.14
7 27 0.6 0.18
7 28 0.5 0.25
7 29 0.72 0.08
7 30 0.6 0.1
7 31 0.7 0.2
7 32 0.38 0.19
7 33 0.58 0.2
7 34 0.62 0.18
7 35 0.57 0.16
7 36 0.52 0.21
7 37 0.76 0.32
7 38 0.32 0.1
7 39 0.52 0.21
8 9 0.6 0.22
8 10 0.42 0.26
8 11 0.64 0.33
8 12 0.26 0.2
8 13 0.55 0.19
8 14 0.61 0.12
8 15 0.52 0.13
8 16 0.48 0.14
8 17 0.64 0.16
8 18 0.5 0.29
8 19 0.64 0.18
8 20 0.54 0.19
8 21 0.6 0.28
8 22 0.74 0.11
8 23 0.66 0.16
8 24 0.66 0.23
8 25 0.6 0.18
8 26 0.41 0.13
8 27 0.34 0.08
8 28 0.64 0.21
8 29 0.62 0.18
8 30 0.6 0.26
8 31 0.68 0.32
8 32 0.48 0.24
8 33 0.63 0.26
8 34 0.56 0.13
8 35 0.56 0.18
8 36 0.6 0.35
8 37 0.62 0.32
8 38 0.62 0.22
8 39 0.69 0.31
9 10 0.4 0.21
9 11 0.56 0.31
9 12 0.67 0.18
9 13 0.68 0.29
9 14 0.59 0.1
9 15 0.52 0.19
9 16 0.68 0.2
9 17 0.4 0.17
9 18 0.62 0.24
9 19 0.37 0.2
9 20 0.52 0.18
9 21 0.5 0.18
9 22 0.6 0.17
9 23 0.12 0.06
9 24 0.56 0.14
9 25 0.52 0.24
9 26 0.62 0.27
9 27 0.52 0.14
9 28 0.32 0.12
9 29 0.5 0.24
9 30 0.63 0.26
9 31 0.46 0.3
9 32 0.74 0.26
9 33 0.58 0.3
9 34 0.67 0.11
9 35 0.46 0.19
9 36 0.61 0.27
9 37 0.7 0.36
9 38 0.58 0.22
9 39 0.61 0.29
10 11 0.75 0.22
10 12 0.42 0.2
10 13 0.66 0.33
10 14 0.19 0.14
10 15 0.7 0.18
10 16 0.62 0.24
10 17 0.64 0.26
10 18 0.46 0.21
10 19 0.59 0.24
10 20 0.6 0.28
10 21 0.28 0.26
10 22 0.58 0.21
10 23 0.28 0.15
10 24 0.72 0.23
10 25 0.52 0.21
10 26 0.52 0.27
10 27 0.65 0.18
10 28 0.55 0.21
10 29 0.6 0.21
10 30 0.46 0.28
10 31 0.48 0.12
10 32 0.67 0.3
10 33 0.64 0.32
10 34 0.38 0.15
10 35 0.66 0.13
10 36 0.46 0.23
10 37 0.67 0.3
10 38 0.75 0.22
10 39 0.33 0.28
11 12 0.72 0.37
11 13 0.56 0.33
11 14 0.56 0.21
11 15 0.64 0.24
11 16 0.78 0.31
11 17 0.68 0.3
11 18 0.32 0.32
11 19 0.72 0.41
11 20 0.68 0.34
11 21 0.58 0.31
11 22 0.58 0.28
11 23 0.53 0.25
11 24 0.58 0.33
11 25 0.48 0.24
11 26 0.62 0.33
11 27 0.86 0.25
11 28 0.65 0.31
11 29 0.73 0.27
11 30 0.7 0.39
11 31 0.42 0.32
11 32 0.66 0.32
11 33 0.7 0.33
11 34 0.66 0.22
11 35 0.46 0.19
11 36 0.58 0.16
11 37 0.68 0.44
11 38 0.64 0.37
11 39 0.78 0.27
12 13 0.46 0.24
12 14 0.58 0.22
12 15 0.5 0.23
12 16 0.68 0.2
12 17 0.68 0.16
12 18 0.5 0.12
12 19 0.5 0.04
12 20 0.7 0.1
12 21 0.34 0.23
12 22 0.59 0.21
12 23 0.68 0.24
12 24 0.46 0.21
12 25 0.36 0.28
12 26 0.32 0.18
12 27 0.32 0.18
12 28 0.61 0.19
12 29 0.68 0.24
12 30 0.68 0.26
12 31 0.68 0.27
12 32 0.56 0.1
12 33 0.69 0.28
12 34 0.72 0.23
12 35 0.42 0.18
12 36 0.48 0.24
12 37 0.58 0.24
12 38 0.42 0.18
12 39 0.58 0.13
13 14 0.57 0.19
13 15 0.62 0.18
13 16 0.64 0.14
13 17 0.42 0.22
13 18 0.7 0.12
13 19 0.48 0.28
13 20 0.24 0.18
13 21 0.66 0.16
13 22 0.62 0.12
13 23 0.58 0.23
13 24 0.44 0.18
13 25 0.74 0.25
13 26 0.14 0.06
13 27 0.54 0.15
13 28 0.39 0.2
13 29 0.6 0.12
13 30 0.3 0.22
13 31 0.66 0.28
13 32 0.52 0.24
13 33 0.32 0.15
13 34 0.68 0.2
13 35 0.45 0.2
13 36 0.46 0.17
13 37 0.52 0.24
13 38 0.63 0.22
13 39 0.5 0.24
14 15 0.65 0.09
14 16 0.61 0.1
14 17 0.58 0.15
14 18 0.33 0.22
14 19 0.4 0.26
14 20 0.79 0.15
14 21 0.47 0.17
14 22 0.7 0.07
14 23 0.47 0.04
14 24 0.59 0.12
14 25 0.53 0.14
14 26 0.51 0.17
14 27 0.52 0.04
14 28 0.36 0.1
14 29 0.76 0.14
14 30 0.27 0.18
14 31 0.58 0.26
14 32 0.71 0.2
14 33 0.52 0.22
14 34 0.19 0.01
14 35 0.59 0.14
14 36 0.6 0.3
14 37 0.48 0.28
14 38 0.56 0.18
14 39 0.48 0.19
15 16 0.78 0.11
15 17 0.52 0.2
15 18 0.32 0.16
15 19 0.48 0.27
15 20 0.84 0.14
15 21 0.58 0.23
15 22 0.54 0.06
15 23 0.5 0.13
15 24 0.58 0.21
15 25 0.78 0.15
15 26 0.64 0.16
15 27 0.6 0.05
15 28 0.78 0.19
15 29 0.6 0.13
15 30 0.72 0.22
15 31 0.72 0.24
15 32 0.86 0.21
15 33 0.66 0.23
15 34 0.56 0.1
15 35 0.2 0.05
15 36 0.66 0.27
15 37 0.43 0.27
15 38 0.67 0.17
15 39 0.59 0.26
16 17 0.78 0.23
16 18 0.6 0.26
16 19 0.48 0.24
16 20 0.52 0.17
16 21 0.34 0.2
16 22 0.78 0.09
16 23 0.56 0.14
16 24 0.69 0.22
16 25 0.56 0.16
16 26 0.54 0.19
16 27 0.66 0.06
16 28 0.54 0.2
16 29 0.6 0.16
16 30 0.34 0.2
16 31 0.49 0.3
16 32 0.19 0.1
16 33 0.54 0.24
16 34 0.65 0.11
16 35 0.61 0.16
16 36 0.83 0.21
16 37 0.66 0.3
16 38 0.78 0.2
16 39 0.66 0.29
17 18 0.69 0.17
17 19 0.56 0.12
17 20 0.48 0.24
17 21 0.53 0.18
17 22 0.7 0.18
17 23 0.52 0.11
17 24 0.48 0.07
17 25 0.32 0.27
17 26 0.56 0.23
17 27 0.65 0.17
17 28 0.72 0.05
17 29 0.56 0.17
17 30 0.44 0.1
17 31 0.36 0.23
17 32 0.62 0.19
17 33 0.71 0.22
17 34 0.42 0.16
17 35 0.58 0.24
17 36 0.47 0.19
17 37 0.53 0.27
17 38 0.58 0.2
17 39 0.4 0.24
18 19 0.6 0.16
18 20 0.61 0.22
18 21 0.26 0.18
18 22 0.77 0.22
18 23 0.5 0.18
18 24 0.26 0.14
18 25 0.6 0.31
18 26 0.8 0.18
18 27 0.66 0.21
18 28 0.5 0.12
18 29 0.76 0.24
18 30 0.52 0.26
18 31 0.42 0.16
18 32 0.67 0.22
18 33 0.38 0.18
18 34 0.36 0.23
18 35 0.52 0.21
18 36 0.5 0.29
18 37 0.36 0.12
18 38 0.74 0.26
18 39 0.69 0.25
19 20 0.72 0.14
19 21 0.34 0.27
19 22 0.76 0.25
19 23 0.49 0.23
19 24 0.35 0.19
19 25 0.52 0.32
19 26 0.62 0.22
19 27 0.66 0.22
19 28 0.46 0.17
19 29 0.66 0.28
19 30 0.42 0.22
19 31 0.64 0.31
19 32 0.6 0.14
19 33 0.58 0.32
19 34 0.32 0.27
19 35 0.46 0.22
19 36 0.74 0.28
19 37 0.72 0.28
19 38 0.64 0.22
19 39 0.78 0.17
20 21 0.66 0.16
20 22 0.86 0.12
20 23 0.64 0.19
20 24 0.44 0.17
20 25 0.64 0.21
20 26 0.38 0.22
20 27 0.71 0.11
20 28 0.57 0.19
20 29 0.78 0.18
20 30 0.54 0.18
20 31 0.42 0.17
20 32 0.68 0.2
20 33 0.56 0.18
20 34 0.9 0.16
20 35 0.69 0.19
20 36 0.65 0.18
20 37 0.57 0.22
20 38 0.7 0.08
20 39 0.65 0.2
21 22 0.53 0.21
21 23 0.52 0.21
21 24 0.52 0.25
21 25 0.7 0.14
21 26 0.56 0.16
21 27 0.66 0.2
21 28 0.61 0.23
21 29 0.83 0.1
21 30 0.36 0.08
21 31 0.38 0.22
21 32 0.53 0.21
21 33 0.64 0.22
21 34 0.6 0.16
21 35 0.76 0.18
21 36 0.49 0.23
21 37 0.62 0.3
21 38 0.57 0.12
21 39 0.61 0.23
22 23 0.62 0.11
22 24 0.51 0.19
22 25 0.81 0.13
22 26 0.58 0.14
22 27 0.83 0.03
22 28 0.34 0.17
22 29 0.75 0.11
22 30 0.67 0.2
22 31 0.6 0.21
22 32 0.77 0.19
22 33 0.43 0.21
22 34 0.69 0.08
22 35 0.54 0.11
22 36 0.7 0.29
22 37 0.62 0.21
22 38 0.35 0.11
22 39 0.7 0.24
23 24 0.52 0.08
23 25 0.64 0.18
23 26 0.68 0.21
23 27 0.4 0.08
23 28 0.28 0.06
23 29 0.62 0.18
23 30 0.61 0.21
23 31 0.58 0.24
23 32 0.75 0.2
23 33 0.66 0.26
23 34 0.66 0.05
23 35 0.46 0.13
23 36 0.73 0.27
23 37 0.81 0.3
23 38 0.57 0.22
23 39 0.49 0.23
24 25 0.77 0.26
24 26 0.54 0.24
24 27 0.6 0.16
24 28 0.24 0.02
24 29 0.62 0.24
24 30 0.57 0.17
24 31 0.66 0.2
24 32 0.56 0.12
24 33 0.23 0.18
24 34 0.62 0.13
24 35 0.69 0.21
24 36 0.76 0.26
24 37 0.62 0.26
24 38 0.48 0.24
24 39 0.75 0.31
25 26 0.68 0.23
25 27 0.5 0.1
25 28 0.6 0.24
25 29 0.48 0.2
25 30 0.52 0.22
25 31 0.48 0.33
25 32 0.75 0.26
25 33 0.75 0.28
25 34 0.72 0.15
25 35 0.76 0.2
25 36 0.75 0.37
25 37 0.82 0.34
25 38 0.55 0.24
25 39 0.46 0.33
26 27 0.4 0.13
26 28 0.53 0.26
26 29 0.68 0.06
26 30 0.44 0.18
26 31 0.66 0.26
26 32 0.38 0.28
26 33 0.46 0.21
26 34 0.7 0.18
26 35 0.52 0.14
26 36 0.5 0.23
26 37 0.55 0.3
26 38 0.49 0.16
26 39 0.38 0.18
27 28 0.58 0.14
27 29 0.8 0.1
27 30 0.52 0.19
27 31 0.78 0.24
27 32 0.78 0.16
27 33 0.74 0.18
27 34 0.71 0.05
27 35 0.73 0.1
27 36 0.8 0.27
27 37 0.78 0.24
27 38 0.74 0.14
27 39 0.64 0.23
28 29 0.55 0.22
28 30 0.33 0.15
28 31 0.46 0.18
28 32 0.56 0.14
28 33 0.47 0.2
28 34 0.55 0.11
28 35 0.69 0.19
28 36 0.7 0.24
28 37 0.64 0.24
28 38 0.44 0.25
28 39 0.52 0.29
29 30 0.74 0.12
29 31 0.57 0.2
29 32 0.48 0.23
29 33 0.78 0.2
29 34 0.66 0.15
29 35 0.4 0.08
29 36 0.69 0.24
29 37 0.4 0.32
29 38 0.4 0.1
29 39 0.56 0.13
30 31 0.49 0.2
30 32 0.44 0.2
30 33 0.62 0.2
30 34 0.46 0.19
30 35 0.52 0.2
30 36 0.6 0.29
30 37 0.75 0.37
30 38 0.53 0.1
30 39 0.56 0.25
31 32 0.68 0.32
31 33 0.8 0.2
31 34 0.73 0.27
31 35 0.64 0.25
31 36 0.56 0.27
31 37 0.78 0.28
31 38 0.74 0.1
31 39 0.53 0.16
32 33 0.67 0.3
32 34 0.61 0.21
32 35 0.74 0.26
32 36 0.67 0.31
32 37 0.72 0.32
32 38 0.7 0.28
32 39 0.64 0.23
33 34 0.57 0.23
33 35 0.46 0.28
33 36 0.69 0.17
33 37 0.41 0.3
33 38 0.54 0.1
33 39 0.72 0.28
34 35 0.47 0.15
34 36 0.64 0.31
34 37 0.65 0.29
34 38 0.5 0.19
34 39 0.46 0.2
35 36 0.8 0.22
35 37 0.63 0.32
35 38 0.62 0.18
35 39 0.6 0.21
36 37 0.6 0.32
36 38 0.68 0.26
36 39 0.5 0.11
37 38 0.54 0.3
37 39 0.76 0.37
38 39 0.6 0.23
